62 300 183 83 139 57 33 51 156 135 175 2 122 62 129 200 24 180 61 92 79 184 40 43 63 193 39 180 195 106 138 126 167 121 160 105 129 193 107 36 127 82 38 200 95 118 151 70 97 164 114 128 147 105 170 162 97 160 141 44 66 30 169 184 